100
128
43
20
9
54
19
47
59
13
62
5
12
58
11
31
40
28
27
8
46
20
37
42
42
32
41
8
35
28
62
32
14
42
9
15
20
23
27
11
39
13
43
15
19
14
33
12
48
13
21
46
19
36
19
33
34
57
10
22
16
19
1
51
47
44
15
21
6
17
62
52
30
57
25
35
21
22
34
19
17
29
8
20
24
47
40
16
53
46
43
53
61
18
22
18
61
32
48
26
29
46